
Gurobi 8.1.0 (win64, Python) logging started 01/02/19 11:46:22

Academic license - for non-commercial use only
Optimize a model with 2 rows, 3 columns and 5 nonzeros
Variable types: 0 continuous, 3 integer (3 binary)
Coefficient statistics:
  Matrix range     [1e+00, 3e+00]
  Objective range  [1e+00, 2e+00]
  Bounds range     [1e+00, 1e+00]
  RHS range        [1e+00, 4e+00]
Found heuristic solution: objective 2.0000000
Presolve removed 2 rows and 3 columns
Presolve time: 0.01s
Presolve: All rows and columns removed

Explored 0 nodes (0 simplex iterations) in 0.03 seconds
Thread count was 1 (of 4 available processors)

Solution count 2: 3 2 

Optimal solution found (tolerance 1.00e-04)
Best objective 3.000000000000e+00, best bound 3.000000000000e+00, gap 0.0000%

Gurobi 8.1.0 (win64, Python) logging started 01/02/19 12:17:49

Academic license - for non-commercial use only
Optimize a model with 16 rows, 12 columns and 36 nonzeros
Coefficient statistics:
  Matrix range     [1e+00, 1e+00]
  Objective range  [1e+01, 8e+01]
  Bounds range     [0e+00, 0e+00]
  RHS range        [1e+01, 1e+02]
Presolve removed 16 rows and 12 columns
Presolve time: 0.01s
Presolve: All rows and columns removed
Iteration    Objective       Primal Inf.    Dual Inf.      Time
       0    5.5000000e+03   0.000000e+00   0.000000e+00      0s

Solved in 0 iterations and 0.01 seconds
Optimal objective  5.500000000e+03

Gurobi 8.1.0 (win64, Python) logging started 01/02/19 12:19:42

Academic license - for non-commercial use only
Optimize a model with 16 rows, 12 columns and 36 nonzeros
Coefficient statistics:
  Matrix range     [1e+00, 1e+00]
  Objective range  [1e+01, 8e+01]
  Bounds range     [0e+00, 0e+00]
  RHS range        [1e+01, 1e+02]
Presolve removed 16 rows and 12 columns
Presolve time: 0.00s
Presolve: All rows and columns removed
Iteration    Objective       Primal Inf.    Dual Inf.      Time
       0    5.5000000e+03   0.000000e+00   0.000000e+00      0s

Solved in 0 iterations and 0.00 seconds
Optimal objective  5.500000000e+03

Gurobi 8.1.0 (win64, Python) logging started 01/02/19 13:34:07

Academic license - for non-commercial use only
Optimize a model with 2 rows, 3 columns and 5 nonzeros
Variable types: 0 continuous, 3 integer (3 binary)
Coefficient statistics:
  Matrix range     [1e+00, 2e+02]
  Objective range  [0e+00, 0e+00]
  Bounds range     [1e+00, 1e+00]
  RHS range        [1e+00, 2e+02]
Found heuristic solution: objective 0.0000000

Explored 0 nodes (0 simplex iterations) in 0.00 seconds
Thread count was 1 (of 4 available processors)

Solution count 1: 0 

Optimal solution found (tolerance 1.00e-04)
Best objective 0.000000000000e+00, best bound 0.000000000000e+00, gap 0.0000%

Gurobi 8.1.0 (win64, Python) logging started 01/02/19 13:34:32

Academic license - for non-commercial use only
Optimize a model with 1 rows, 3 columns and 3 nonzeros
Variable types: 0 continuous, 3 integer (3 binary)
Coefficient statistics:
  Matrix range     [5e+01, 2e+02]
  Objective range  [0e+00, 0e+00]
  Bounds range     [1e+00, 1e+00]
  RHS range        [2e+02, 2e+02]
Presolve removed 1 rows and 3 columns
Presolve time: 0.00s
Presolve: All rows and columns removed

Explored 0 nodes (0 simplex iterations) in 0.00 seconds
Thread count was 1 (of 4 available processors)

Solution count 1: 0 

Optimal solution found (tolerance 1.00e-04)
Best objective 0.000000000000e+00, best bound 0.000000000000e+00, gap 0.0000%

Gurobi 8.1.0 (win64, Python) logging started 01/02/19 13:50:56

Academic license - for non-commercial use only

Gurobi 8.1.0 (win64, Python) logging started 01/02/19 13:57:00

Academic license - for non-commercial use only
Optimize a model with 23 rows, 137 columns and 261 nonzeros
Model has 2 general constraints
Variable types: 25 continuous, 112 integer (112 binary)
Coefficient statistics:
  Matrix range     [1e+00, 1e+00]
  Objective range  [1e+00, 1e+00]
  Bounds range     [1e+00, 1e+00]
  RHS range        [2e+00, 7e+00]

---------------------------------------------------------------------------
Multi-objectives: starting optimization with 2 objectives ... 
---------------------------------------------------------------------------

Multi-objectives: applying initial presolve ...
---------------------------------------------------------------------------

Presolve added 13 rows and 0 columns
Presolve removed 0 rows and 3 columns
Presolve time: 0.00s
Presolved: 36 rows and 134 columns
---------------------------------------------------------------------------

Multi-objectives: optimize objective 1 (TotalSlack) ...
---------------------------------------------------------------------------

Presolve added 8 rows and 0 columns
Presolve removed 0 rows and 20 columns
Presolve time: 0.00s
Presolved: 44 rows, 114 columns, 224 nonzeros
Presolved model has 8 SOS constraint(s)
Variable types: 18 continuous, 96 integer (81 binary)
Found heuristic solution: objective 5.0000000

Root relaxation: objective 3.000000e+00, 33 iterations, 0.00 seconds

    Nodes    |    Current Node    |     Objective Bounds      |     Work
 Expl Unexpl |  Obj  Depth IntInf | Incumbent    BestBd   Gap | It/Node Time

     0     0    3.00000    0    5    5.00000    3.00000  40.0%     -    0s
H    0     0                       3.0000000    3.00000  0.00%     -    0s

Explored 1 nodes (33 simplex iterations) in 0.04 seconds
Thread count was 4 (of 4 available processors)

Solution count 2: 3 5 

Optimal solution found (tolerance 1.00e-04)
Best objective 3.000000000000e+00, best bound 3.000000000000e+00, gap 0.0000%
---------------------------------------------------------------------------

Multi-objectives: optimize objective 2 (Fairness) ...
---------------------------------------------------------------------------


Loaded MIP start with objective 3

Presolve added 8 rows and 0 columns
Presolve removed 0 rows and 10 columns
Presolve time: 0.00s
Presolved: 45 rows, 124 columns, 273 nonzeros
Presolved model has 8 SOS constraint(s)
Variable types: 18 continuous, 106 integer (81 binary)

Root relaxation: objective 0.000000e+00, 73 iterations, 0.00 seconds

    Nodes    |    Current Node    |     Objective Bounds      |     Work
 Expl Unexpl |  Obj  Depth IntInf | Incumbent    BestBd   Gap | It/Node Time

     0     0    0.00000    0   19    3.00000    0.00000   100%     -    0s
H    0     0                       1.0000000    0.00000   100%     -    0s
     0     0    0.11364    0   21    1.00000    0.11364  88.6%     -    0s
     0     0    0.11364    0   24    1.00000    0.11364  88.6%     -    0s
     0     0    0.11364    0   18    1.00000    0.11364  88.6%     -    0s
     0     0    0.12195    0   19    1.00000    0.12195  87.8%     -    0s
     0     0    0.12195    0   19    1.00000    0.12195  87.8%     -    0s
     0     2    0.12195    0   19    1.00000    0.12195  87.8%     -    0s

Cutting planes:
  Gomory: 1
  MIR: 1

Explored 2211 nodes (7811 simplex iterations) in 0.27 seconds
Thread count was 4 (of 4 available processors)

Solution count 2: 1 3 

Optimal solution found (tolerance 1.00e-04)
Best objective 1.000000000000e+00, best bound 1.000000000000e+00, gap 0.0000%

---------------------------------------------------------------------------
Multi-objectives: solved in 0.28 seconds, solution count 3


Gurobi 8.1.0 (win64, Python) logging started 01/02/19 14:01:15

Academic license - for non-commercial use only
Optimize a model with 23 rows, 137 columns and 261 nonzeros
Model has 2 general constraints
Variable types: 25 continuous, 112 integer (112 binary)
Coefficient statistics:
  Matrix range     [1e+00, 1e+00]
  Objective range  [1e+00, 1e+00]
  Bounds range     [1e+00, 1e+00]
  RHS range        [2e+00, 7e+00]

---------------------------------------------------------------------------
Multi-objectives: starting optimization with 2 objectives ... 
---------------------------------------------------------------------------

Multi-objectives: applying initial presolve ...
---------------------------------------------------------------------------

Presolve added 13 rows and 0 columns
Presolve removed 0 rows and 3 columns
Presolve time: 0.00s
Presolved: 36 rows and 134 columns
---------------------------------------------------------------------------

Multi-objectives: optimize objective 1 (TotalSlack) ...
---------------------------------------------------------------------------

Presolve added 8 rows and 0 columns
Presolve removed 0 rows and 20 columns
Presolve time: 0.00s
Presolved: 44 rows, 114 columns, 224 nonzeros
Presolved model has 8 SOS constraint(s)
Variable types: 18 continuous, 96 integer (81 binary)
Found heuristic solution: objective 5.0000000

Root relaxation: objective 3.000000e+00, 33 iterations, 0.00 seconds

    Nodes    |    Current Node    |     Objective Bounds      |     Work
 Expl Unexpl |  Obj  Depth IntInf | Incumbent    BestBd   Gap | It/Node Time

     0     0    3.00000    0    5    5.00000    3.00000  40.0%     -    0s
H    0     0                       3.0000000    3.00000  0.00%     -    0s

Explored 1 nodes (33 simplex iterations) in 0.03 seconds
Thread count was 4 (of 4 available processors)

Solution count 2: 3 5 

Optimal solution found (tolerance 1.00e-04)
Best objective 3.000000000000e+00, best bound 3.000000000000e+00, gap 0.0000%
---------------------------------------------------------------------------

Multi-objectives: optimize objective 2 (Fairness) ...
---------------------------------------------------------------------------


Loaded MIP start with objective 3

Presolve added 8 rows and 0 columns
Presolve removed 0 rows and 10 columns
Presolve time: 0.00s
Presolved: 45 rows, 124 columns, 273 nonzeros
Presolved model has 8 SOS constraint(s)
Variable types: 18 continuous, 106 integer (81 binary)

Root relaxation: objective 0.000000e+00, 73 iterations, 0.00 seconds

    Nodes    |    Current Node    |     Objective Bounds      |     Work
 Expl Unexpl |  Obj  Depth IntInf | Incumbent    BestBd   Gap | It/Node Time

     0     0    0.00000    0   19    3.00000    0.00000   100%     -    0s
H    0     0                       1.0000000    0.00000   100%     -    0s
     0     0    0.11364    0   21    1.00000    0.11364  88.6%     -    0s
     0     0    0.11364    0   24    1.00000    0.11364  88.6%     -    0s
     0     0    0.11364    0   18    1.00000    0.11364  88.6%     -    0s
     0     0    0.12195    0   19    1.00000    0.12195  87.8%     -    0s
     0     0    0.12195    0   19    1.00000    0.12195  87.8%     -    0s
     0     2    0.12195    0   19    1.00000    0.12195  87.8%     -    0s

Cutting planes:
  Gomory: 1
  MIR: 1

Explored 2211 nodes (7811 simplex iterations) in 0.26 seconds
Thread count was 4 (of 4 available processors)

Solution count 2: 1 3 

Optimal solution found (tolerance 1.00e-04)
Best objective 1.000000000000e+00, best bound 1.000000000000e+00, gap 0.0000%

---------------------------------------------------------------------------
Multi-objectives: solved in 0.27 seconds, solution count 3


Gurobi 8.1.0 (win64, Python) logging started 01/03/19 10:59:56

Academic license - for non-commercial use only
Optimize a model with 23 rows, 137 columns and 261 nonzeros
Model has 2 general constraints
Variable types: 25 continuous, 112 integer (112 binary)
Coefficient statistics:
  Matrix range     [1e+00, 1e+00]
  Objective range  [1e+00, 1e+00]
  Bounds range     [1e+00, 1e+00]
  RHS range        [2e+00, 7e+00]

---------------------------------------------------------------------------
Multi-objectives: starting optimization with 2 objectives ... 
---------------------------------------------------------------------------

Multi-objectives: applying initial presolve ...
---------------------------------------------------------------------------

Presolve added 13 rows and 0 columns
Presolve removed 0 rows and 3 columns
Presolve time: 0.02s
Presolved: 36 rows and 134 columns
---------------------------------------------------------------------------

Multi-objectives: optimize objective 1 (TotalSlack) ...
---------------------------------------------------------------------------

Presolve added 8 rows and 0 columns
Presolve removed 0 rows and 20 columns
Presolve time: 0.01s
Presolved: 44 rows, 114 columns, 224 nonzeros
Presolved model has 8 SOS constraint(s)
Variable types: 18 continuous, 96 integer (81 binary)
Found heuristic solution: objective 5.0000000

Root relaxation: objective 3.000000e+00, 33 iterations, 0.01 seconds

    Nodes    |    Current Node    |     Objective Bounds      |     Work
 Expl Unexpl |  Obj  Depth IntInf | Incumbent    BestBd   Gap | It/Node Time

     0     0    3.00000    0    5    5.00000    3.00000  40.0%     -    0s
H    0     0                       3.0000000    3.00000  0.00%     -    0s

Explored 1 nodes (33 simplex iterations) in 0.09 seconds
Thread count was 4 (of 4 available processors)

Solution count 2: 3 5 

Optimal solution found (tolerance 1.00e-04)
Best objective 3.000000000000e+00, best bound 3.000000000000e+00, gap 0.0000%
---------------------------------------------------------------------------

Multi-objectives: optimize objective 2 (Fairness) ...
---------------------------------------------------------------------------


Loaded MIP start with objective 3

Presolve added 8 rows and 0 columns
Presolve removed 0 rows and 10 columns
Presolve time: 0.00s
Presolved: 45 rows, 124 columns, 273 nonzeros
Presolved model has 8 SOS constraint(s)
Variable types: 18 continuous, 106 integer (81 binary)

Root relaxation: objective 0.000000e+00, 73 iterations, 0.00 seconds

    Nodes    |    Current Node    |     Objective Bounds      |     Work
 Expl Unexpl |  Obj  Depth IntInf | Incumbent    BestBd   Gap | It/Node Time

     0     0    0.00000    0   19    3.00000    0.00000   100%     -    0s
H    0     0                       1.0000000    0.00000   100%     -    0s
     0     0    0.11364    0   21    1.00000    0.11364  88.6%     -    0s
     0     0    0.11364    0   24    1.00000    0.11364  88.6%     -    0s
     0     0    0.11364    0   18    1.00000    0.11364  88.6%     -    0s
     0     0    0.12195    0   19    1.00000    0.12195  87.8%     -    0s
     0     0    0.12195    0   19    1.00000    0.12195  87.8%     -    0s
     0     2    0.12195    0   19    1.00000    0.12195  87.8%     -    0s

Cutting planes:
  Gomory: 1
  MIR: 1

Explored 2211 nodes (7811 simplex iterations) in 0.55 seconds
Thread count was 4 (of 4 available processors)

Solution count 2: 1 3 

Optimal solution found (tolerance 1.00e-04)
Best objective 1.000000000000e+00, best bound 1.000000000000e+00, gap 0.0000%

---------------------------------------------------------------------------
Multi-objectives: solved in 0.57 seconds, solution count 3


Gurobi 8.1.0 (win64, Python) logging started 01/03/19 11:01:01

Academic license - for non-commercial use only
Optimize a model with 23 rows, 137 columns and 261 nonzeros
Model has 2 general constraints
Variable types: 25 continuous, 112 integer (112 binary)
Coefficient statistics:
  Matrix range     [1e+00, 1e+00]
  Objective range  [1e+00, 1e+00]
  Bounds range     [1e+00, 1e+00]
  RHS range        [2e+00, 7e+00]

---------------------------------------------------------------------------
Multi-objectives: starting optimization with 2 objectives ... 
---------------------------------------------------------------------------

Multi-objectives: applying initial presolve ...
---------------------------------------------------------------------------

Presolve added 13 rows and 0 columns
Presolve removed 0 rows and 3 columns
Presolve time: 0.00s
Presolved: 36 rows and 134 columns
---------------------------------------------------------------------------

Multi-objectives: optimize objective 1 (TotalSlack) ...
---------------------------------------------------------------------------

Presolve added 8 rows and 0 columns
Presolve removed 0 rows and 20 columns
Presolve time: 0.00s
Presolved: 44 rows, 114 columns, 224 nonzeros
Presolved model has 8 SOS constraint(s)
Variable types: 18 continuous, 96 integer (81 binary)
Found heuristic solution: objective 5.0000000

Root relaxation: objective 3.000000e+00, 33 iterations, 0.00 seconds

    Nodes    |    Current Node    |     Objective Bounds      |     Work
 Expl Unexpl |  Obj  Depth IntInf | Incumbent    BestBd   Gap | It/Node Time

     0     0    3.00000    0    5    5.00000    3.00000  40.0%     -    0s
H    0     0                       3.0000000    3.00000  0.00%     -    0s

Explored 1 nodes (33 simplex iterations) in 0.05 seconds
Thread count was 4 (of 4 available processors)

Solution count 2: 3 5 

Optimal solution found (tolerance 1.00e-04)
Best objective 3.000000000000e+00, best bound 3.000000000000e+00, gap 0.0000%
---------------------------------------------------------------------------

Multi-objectives: optimize objective 2 (Fairness) ...
---------------------------------------------------------------------------


Loaded MIP start with objective 3

Presolve added 8 rows and 0 columns
Presolve removed 0 rows and 10 columns
Presolve time: 0.00s
Presolved: 45 rows, 124 columns, 273 nonzeros
Presolved model has 8 SOS constraint(s)
Variable types: 18 continuous, 106 integer (81 binary)

Root relaxation: objective 0.000000e+00, 73 iterations, 0.00 seconds

    Nodes    |    Current Node    |     Objective Bounds      |     Work
 Expl Unexpl |  Obj  Depth IntInf | Incumbent    BestBd   Gap | It/Node Time

     0     0    0.00000    0   19    3.00000    0.00000   100%     -    0s
H    0     0                       1.0000000    0.00000   100%     -    0s
     0     0    0.11364    0   21    1.00000    0.11364  88.6%     -    0s
     0     0    0.11364    0   24    1.00000    0.11364  88.6%     -    0s
     0     0    0.11364    0   18    1.00000    0.11364  88.6%     -    0s
     0     0    0.12195    0   19    1.00000    0.12195  87.8%     -    0s
     0     0    0.12195    0   19    1.00000    0.12195  87.8%     -    0s
     0     2    0.12195    0   19    1.00000    0.12195  87.8%     -    0s

Cutting planes:
  Gomory: 1
  MIR: 1

Explored 2211 nodes (7811 simplex iterations) in 0.43 seconds
Thread count was 4 (of 4 available processors)

Solution count 2: 1 3 

Optimal solution found (tolerance 1.00e-04)
Best objective 1.000000000000e+00, best bound 1.000000000000e+00, gap 0.0000%

---------------------------------------------------------------------------
Multi-objectives: solved in 0.45 seconds, solution count 3


Gurobi 8.1.0 (win64, Python) logging started 01/03/19 11:02:30

Academic license - for non-commercial use only
Optimize a model with 23 rows, 137 columns and 261 nonzeros
Model has 2 general constraints
Variable types: 25 continuous, 112 integer (112 binary)
Coefficient statistics:
  Matrix range     [1e+00, 1e+00]
  Objective range  [1e+00, 1e+00]
  Bounds range     [1e+00, 1e+00]
  RHS range        [2e+00, 7e+00]

---------------------------------------------------------------------------
Multi-objectives: starting optimization with 2 objectives ... 
---------------------------------------------------------------------------

Multi-objectives: applying initial presolve ...
---------------------------------------------------------------------------

Presolve added 13 rows and 0 columns
Presolve removed 0 rows and 3 columns
Presolve time: 0.00s
Presolved: 36 rows and 134 columns
---------------------------------------------------------------------------

Multi-objectives: optimize objective 1 (TotalSlack) ...
---------------------------------------------------------------------------

Presolve added 8 rows and 0 columns
Presolve removed 0 rows and 20 columns
Presolve time: 0.00s
Presolved: 44 rows, 114 columns, 224 nonzeros
Presolved model has 8 SOS constraint(s)
Variable types: 18 continuous, 96 integer (81 binary)
Found heuristic solution: objective 5.0000000

Root relaxation: objective 3.000000e+00, 33 iterations, 0.00 seconds

    Nodes    |    Current Node    |     Objective Bounds      |     Work
 Expl Unexpl |  Obj  Depth IntInf | Incumbent    BestBd   Gap | It/Node Time

     0     0    3.00000    0    5    5.00000    3.00000  40.0%     -    0s
H    0     0                       3.0000000    3.00000  0.00%     -    0s

Explored 1 nodes (33 simplex iterations) in 0.04 seconds
Thread count was 4 (of 4 available processors)

Solution count 2: 3 5 

Optimal solution found (tolerance 1.00e-04)
Best objective 3.000000000000e+00, best bound 3.000000000000e+00, gap 0.0000%
---------------------------------------------------------------------------

Multi-objectives: optimize objective 2 (Fairness) ...
---------------------------------------------------------------------------


Loaded MIP start with objective 3

Presolve added 8 rows and 0 columns
Presolve removed 0 rows and 10 columns
Presolve time: 0.00s
Presolved: 45 rows, 124 columns, 273 nonzeros
Presolved model has 8 SOS constraint(s)
Variable types: 18 continuous, 106 integer (81 binary)

Root relaxation: objective 0.000000e+00, 73 iterations, 0.00 seconds

    Nodes    |    Current Node    |     Objective Bounds      |     Work
 Expl Unexpl |  Obj  Depth IntInf | Incumbent    BestBd   Gap | It/Node Time

     0     0    0.00000    0   19    3.00000    0.00000   100%     -    0s
H    0     0                       1.0000000    0.00000   100%     -    0s
     0     0    0.11364    0   21    1.00000    0.11364  88.6%     -    0s
     0     0    0.11364    0   24    1.00000    0.11364  88.6%     -    0s
     0     0    0.11364    0   18    1.00000    0.11364  88.6%     -    0s
     0     0    0.12195    0   19    1.00000    0.12195  87.8%     -    0s
     0     0    0.12195    0   19    1.00000    0.12195  87.8%     -    0s
     0     2    0.12195    0   19    1.00000    0.12195  87.8%     -    0s

Cutting planes:
  Gomory: 1
  MIR: 1

Explored 2211 nodes (7811 simplex iterations) in 0.56 seconds
Thread count was 4 (of 4 available processors)

Solution count 2: 1 3 

Optimal solution found (tolerance 1.00e-04)
Best objective 1.000000000000e+00, best bound 1.000000000000e+00, gap 0.0000%

---------------------------------------------------------------------------
Multi-objectives: solved in 0.57 seconds, solution count 3


Gurobi 8.1.0 (win64, Python) logging started 01/03/19 11:06:04

Academic license - for non-commercial use only
Error: it isn't a multi-objective model

Gurobi 8.1.0 (win64, Python) logging started 01/03/19 11:17:05

Academic license - for non-commercial use only
Error: it isn't a multi-objective model

Gurobi 8.1.0 (win64, Python) logging started 01/03/19 11:36:30

Academic license - for non-commercial use only
